990
2
32, 36, 47, 79, 69, 77, 44, 69, 34, 31, 76, 64, 32, 50, 51, 49, 56, 71, 66, 43
4, 93, 42, 78, 76, 41, 91, 52, 82, 29, 91, 31, 11, 54, 65, 48, 89, 14, 74, 51
2, 1, 2, 2, 2, 2, 2, 1, 2, 1, 2, 2, 2, 1, 1, 2, 1, 2, 1, 1